32      10      
13      19      17      11      12      15      14      19      12      19      
0       0       0       0       0       0       0       0       0       0       0       1       2       
9       7       1       10      1       1       5       1       5       5       2       1       3       
4       6       9       6       1       5       1       1       2       3       1       2       4       8       
5       1       9       1       1       5       7       4       1       1       1       1       5       
6       9       1       4       1       4       1       1       7       1       8       2       6       7       
4       5       4       1       1       1       4       5       5       6       19      2       9       12      
5       4       6       4       1       1       1       5       14      1       13      1       10      
10      5       8       1       4       1       1       1       2       1       3       1       9       
4       1       5       1       1       1       1       1       4       1       1       2       11      13      
3       1       12      11      4       1       1       1       6       4       7       2       11      13      
4       1       1       1       1       1       2       1       1       5       1       3       14      15      17      
7       1       4       1       3       1       4       2       2       1       1       3       14      15      17      
5       6       5       1       9       6       5       4       1       9       1       1       14      
2       1       1       3       1       1       1       1       1       8       1       3       16      18      24      
5       1       19      1       1       6       9       1       11      1       1       2       16      24      
3       1       1       3       1       4       6       1       7       1       1       3       19      20      22      
10      1       1       5       1       2       8       6       1       1       4       3       19      20      23      
5       1       1       8       5       4       4       10      1       6       1       3       20      22      23      
10      1       7       7       6       1       3       6       1       1       8       1       21      
5       1       2       1       1       6       13      5       1       8       15      1       25      
8       5       4       17      1       9       1       6       1       2       10      1       25      
5       3       1       3       3       1       1       1       7       1       8       1       25      
5       12      12      1       5       1       1       6       7       1       1       1       25      
3       3       9       3       1       5       2       5       1       3       4       1       25      
1       2       1       7       11      1       5       6       13      1       1       2       26      27      
1       1       1       7       3       1       14      1       5       1       14      2       28      29      
4       5       1       1       5       1       3       8       2       1       9       1       28      
2       10      2       9       1       7       1       1       2       1       3       2       30      31      
9       1       9       1       4       6       3       2       14      3       1       1       30      
6       1       3       1       4       5       1       9       10      8       2       1       32      
8       1       3       8       1       1       4       3       8       4       1       1       32      
0       0       0       0       0       0       0       0       0       0       0       0       
